c File: flat50_3_0.col
c
c SOURCE: Joseph Culberson (joe@cs.ualberta.ca)
c DESCRIPTION: Quasi-random coloring problem
c              generated with flatness = 0
c                             probability = 0.139
c                             known coloring = 3
c                             random seed = 1418
c              Creation Date:  Tue Jun  9 12:08:51 1998
c Maximum degree = 8 Minimum degree = 0
c p edge 50 115
c cnf created by edge2cnf
p cnf 150 545
-1 -2 0
-1 -3 0
-2 -3 0
1 2 3 0
-4 -5 0
-4 -6 0
-5 -6 0
4 5 6 0
-7 -8 0
-7 -9 0
-8 -9 0
7 8 9 0
-10 -11 0
-10 -12 0
-11 -12 0
10 11 12 0
-13 -14 0
-13 -15 0
-14 -15 0
13 14 15 0
-16 -17 0
-16 -18 0
-17 -18 0
16 17 18 0
-19 -20 0
-19 -21 0
-20 -21 0
19 20 21 0
-22 -23 0
-22 -24 0
-23 -24 0
22 23 24 0
-25 -26 0
-25 -27 0
-26 -27 0
25 26 27 0
-28 -29 0
-28 -30 0
-29 -30 0
28 29 30 0
-31 -32 0
-31 -33 0
-32 -33 0
31 32 33 0
-34 -35 0
-34 -36 0
-35 -36 0
34 35 36 0
-37 -38 0
-37 -39 0
-38 -39 0
37 38 39 0
-40 -41 0
-40 -42 0
-41 -42 0
40 41 42 0
-43 -44 0
-43 -45 0
-44 -45 0
43 44 45 0
-46 -47 0
-46 -48 0
-47 -48 0
46 47 48 0
-49 -50 0
-49 -51 0
-50 -51 0
49 50 51 0
-52 -53 0
-52 -54 0
-53 -54 0
52 53 54 0
-55 -56 0
-55 -57 0
-56 -57 0
55 56 57 0
-58 -59 0
-58 -60 0
-59 -60 0
58 59 60 0
-61 -62 0
-61 -63 0
-62 -63 0
61 62 63 0
-64 -65 0
-64 -66 0
-65 -66 0
64 65 66 0
-67 -68 0
-67 -69 0
-68 -69 0
67 68 69 0
-70 -71 0
-70 -72 0
-71 -72 0
70 71 72 0
-73 -74 0
-73 -75 0
-74 -75 0
73 74 75 0
-76 -77 0
-76 -78 0
-77 -78 0
76 77 78 0
-79 -80 0
-79 -81 0
-80 -81 0
79 80 81 0
-82 -83 0
-82 -84 0
-83 -84 0
82 83 84 0
-85 -86 0
-85 -87 0
-86 -87 0
85 86 87 0
-88 -89 0
-88 -90 0
-89 -90 0
88 89 90 0
-91 -92 0
-91 -93 0
-92 -93 0
91 92 93 0
-94 -95 0
-94 -96 0
-95 -96 0
94 95 96 0
-97 -98 0
-97 -99 0
-98 -99 0
97 98 99 0
-100 -101 0
-100 -102 0
-101 -102 0
100 101 102 0
-103 -104 0
-103 -105 0
-104 -105 0
103 104 105 0
-106 -107 0
-106 -108 0
-107 -108 0
106 107 108 0
-109 -110 0
-109 -111 0
-110 -111 0
109 110 111 0
-112 -113 0
-112 -114 0
-113 -114 0
112 113 114 0
-115 -116 0
-115 -117 0
-116 -117 0
115 116 117 0
-118 -119 0
-118 -120 0
-119 -120 0
118 119 120 0
-121 -122 0
-121 -123 0
-122 -123 0
121 122 123 0
-124 -125 0
-124 -126 0
-125 -126 0
124 125 126 0
-127 -128 0
-127 -129 0
-128 -129 0
127 128 129 0
-130 -131 0
-130 -132 0
-131 -132 0
130 131 132 0
-133 -134 0
-133 -135 0
-134 -135 0
133 134 135 0
-136 -137 0
-136 -138 0
-137 -138 0
136 137 138 0
-139 -140 0
-139 -141 0
-140 -141 0
139 140 141 0
-142 -143 0
-142 -144 0
-143 -144 0
142 143 144 0
-145 -146 0
-145 -147 0
-146 -147 0
145 146 147 0
-148 -149 0
-148 -150 0
-149 -150 0
148 149 150 0
-64 -1 0
-65 -2 0
-66 -3 0
-103 -1 0
-104 -2 0
-105 -3 0
-121 -1 0
-122 -2 0
-123 -3 0
-124 -1 0
-125 -2 0
-126 -3 0
-82 -4 0
-83 -5 0
-84 -6 0
-88 -4 0
-89 -5 0
-90 -6 0
-106 -4 0
-107 -5 0
-108 -6 0
-118 -4 0
-119 -5 0
-120 -6 0
-130 -4 0
-131 -5 0
-132 -6 0
-142 -4 0
-143 -5 0
-144 -6 0
-67 -7 0
-68 -8 0
-69 -9 0
-85 -7 0
-86 -8 0
-87 -9 0
-142 -7 0
-143 -8 0
-144 -9 0
-148 -7 0
-149 -8 0
-150 -9 0
-85 -10 0
-86 -11 0
-87 -12 0
-91 -10 0
-92 -11 0
-93 -12 0
-130 -10 0
-131 -11 0
-132 -12 0
-142 -10 0
-143 -11 0
-144 -12 0
-55 -13 0
-56 -14 0
-57 -15 0
-88 -13 0
-89 -14 0
-90 -15 0
-100 -13 0
-101 -14 0
-102 -15 0
-70 -16 0
-71 -17 0
-72 -18 0
-82 -16 0
-83 -17 0
-84 -18 0
-94 -16 0
-95 -17 0
-96 -18 0
-112 -16 0
-113 -17 0
-114 -18 0
-52 -19 0
-53 -20 0
-54 -21 0
-100 -19 0
-101 -20 0
-102 -21 0
-52 -22 0
-53 -23 0
-54 -24 0
-112 -22 0
-113 -23 0
-114 -24 0
-133 -22 0
-134 -23 0
-135 -24 0
-52 -25 0
-53 -26 0
-54 -27 0
-94 -25 0
-95 -26 0
-96 -27 0
-130 -25 0
-131 -26 0
-132 -27 0
-139 -25 0
-140 -26 0
-141 -27 0
-55 -28 0
-56 -29 0
-57 -30 0
-85 -28 0
-86 -29 0
-87 -30 0
-109 -28 0
-110 -29 0
-111 -30 0
-112 -28 0
-113 -29 0
-114 -30 0
-133 -28 0
-134 -29 0
-135 -30 0
-142 -28 0
-143 -29 0
-144 -30 0
-58 -31 0
-59 -32 0
-60 -33 0
-82 -31 0
-83 -32 0
-84 -33 0
-97 -31 0
-98 -32 0
-99 -33 0
-100 -31 0
-101 -32 0
-102 -33 0
-136 -31 0
-137 -32 0
-138 -33 0
-52 -34 0
-53 -35 0
-54 -36 0
-67 -34 0
-68 -35 0
-69 -36 0
-85 -34 0
-86 -35 0
-87 -36 0
-94 -34 0
-95 -35 0
-96 -36 0
-109 -34 0
-110 -35 0
-111 -36 0
-121 -34 0
-122 -35 0
-123 -36 0
-124 -34 0
-125 -35 0
-126 -36 0
-58 -37 0
-59 -38 0
-60 -39 0
-70 -37 0
-71 -38 0
-72 -39 0
-73 -37 0
-74 -38 0
-75 -39 0
-100 -37 0
-101 -38 0
-102 -39 0
-106 -37 0
-107 -38 0
-108 -39 0
-121 -37 0
-122 -38 0
-123 -39 0
-124 -37 0
-125 -38 0
-126 -39 0
-55 -40 0
-56 -41 0
-57 -42 0
-76 -40 0
-77 -41 0
-78 -42 0
-118 -40 0
-119 -41 0
-120 -42 0
-121 -40 0
-122 -41 0
-123 -42 0
-139 -40 0
-140 -41 0
-141 -42 0
-112 -43 0
-113 -44 0
-114 -45 0
-115 -43 0
-116 -44 0
-117 -45 0
-130 -43 0
-131 -44 0
-132 -45 0
-145 -43 0
-146 -44 0
-147 -45 0
-73 -46 0
-74 -47 0
-75 -48 0
-91 -46 0
-92 -47 0
-93 -48 0
-94 -46 0
-95 -47 0
-96 -48 0
-115 -46 0
-116 -47 0
-117 -48 0
-136 -46 0
-137 -47 0
-138 -48 0
-64 -49 0
-65 -50 0
-66 -51 0
-73 -49 0
-74 -50 0
-75 -51 0
-88 -49 0
-89 -50 0
-90 -51 0
-127 -49 0
-128 -50 0
-129 -51 0
-103 -52 0
-104 -53 0
-105 -54 0
-106 -52 0
-107 -53 0
-108 -54 0
-139 -52 0
-140 -53 0
-141 -54 0
-142 -52 0
-143 -53 0
-144 -54 0
-112 -55 0
-113 -56 0
-114 -57 0
-133 -55 0
-134 -56 0
-135 -57 0
-103 -58 0
-104 -59 0
-105 -60 0
-115 -58 0
-116 -59 0
-117 -60 0
-124 -61 0
-125 -62 0
-126 -63 0
-133 -61 0
-134 -62 0
-135 -63 0
-103 -64 0
-104 -65 0
-105 -66 0
-118 -64 0
-119 -65 0
-120 -66 0
-121 -64 0
-122 -65 0
-123 -66 0
-148 -64 0
-149 -65 0
-150 -66 0
-112 -67 0
-113 -68 0
-114 -69 0
-139 -67 0
-140 -68 0
-141 -69 0
-136 -70 0
-137 -71 0
-138 -72 0
-142 -70 0
-143 -71 0
-144 -72 0
-118 -73 0
-119 -74 0
-120 -75 0
-127 -73 0
-128 -74 0
-129 -75 0
-130 -73 0
-131 -74 0
-132 -75 0
-148 -73 0
-149 -74 0
-150 -75 0
-139 -76 0
-140 -77 0
-141 -78 0
-118 -85 0
-119 -86 0
-120 -87 0
-121 -85 0
-122 -86 0
-123 -87 0
-133 -85 0
-134 -86 0
-135 -87 0
-145 -85 0
-146 -86 0
-147 -87 0
-106 -88 0
-107 -89 0
-108 -90 0
-109 -88 0
-110 -89 0
-111 -90 0
-142 -88 0
-143 -89 0
-144 -90 0
-130 -91 0
-131 -92 0
-132 -93 0
-139 -91 0
-140 -92 0
-141 -93 0
-124 -94 0
-125 -95 0
-126 -96 0
-127 -94 0
-128 -95 0
-129 -96 0
-130 -94 0
-131 -95 0
-132 -96 0
-118 -97 0
-119 -98 0
-120 -99 0
-136 -97 0
-137 -98 0
-138 -99 0
-112 -100 0
-113 -101 0
-114 -102 0
